<number of tasks>
100

<cycle time>
1000

<order strength>
0.897


<task times>
1 322
2 637
3 495
4 487
5 567
6 506
7 442
8 627
9 548
10 395
11 661
12 262
13 512
14 249
15 587
16 504
17 521
18 734
19 514
20 516
21 438
22 406
23 514
24 626
25 490
26 524
27 417
28 614
29 432
30 415
31 675
32 538
33 734
34 478
35 455
36 513
37 784
38 514
39 375
40 573
41 573
42 516
43 510
44 627
45 629
46 428
47 457
48 372
49 651
50 534
51 911
52 475
53 434
54 258
55 695
56 255
57 554
58 774
59 569
60 590
61 639
62 518
63 530
64 440
65 564
66 445
67 398
68 590
69 596
70 321
71 307
72 519
73 644
74 573
75 460
76 604
77 659
78 516
79 567
80 544
81 501
82 669
83 431
84 342
85 530
86 673
87 503
88 678
89 692
90 500
91 581
92 543
93 522
94 712
95 593
96 673
97 516
98 465
99 484
100 558

<precedence relations>
1,26
2,5
3,4
3,5
3,6
4,7
4,8
5,7
5,8
6,7
6,8
7,9
7,10
7,11
8,9
8,10
8,11
9,12
9,13
10,12
10,13
11,12
11,13
12,14
12,15
13,14
13,15
14,16
15,16
16,17
16,18
16,19
16,20
16,21
17,22
17,23
17,32
18,22
18,23
18,24
18,25
18,26
19,22
19,23
19,24
19,25
19,26
20,22
20,24
20,25
21,25
21,26
22,27
23,27
24,27
24,28
24,29
25,27
25,28
25,29
26,27
26,28
26,29
27,30
27,34
28,30
28,31
28,32
29,30
29,31
29,32
30,33
30,35
30,36
31,33
31,35
31,36
32,33
32,34
32,35
32,36
33,37
33,38
33,39
33,40
34,37
34,38
35,40
36,37
36,38
36,39
37,41
37,42
37,43
37,44
37,45
37,46
37,47
38,41
38,43
38,45
39,41
39,46
39,47
40,41
40,42
40,43
40,44
40,45
40,46
40,47
41,48
41,49
41,50
41,51
42,49
43,51
44,48
44,49
45,48
45,49
45,51
46,50
47,48
47,49
47,50
47,51
48,52
48,53
49,52
49,53
50,52
51,52
52,54
52,55
52,56
53,54
53,55
53,56
54,57
54,58
54,59
54,62
55,57
55,58
55,64
56,57
56,58
56,59
56,60
56,61
56,62
57,63
58,67
58,69
59,63
59,83
59,87
60,65
61,66
62,63
62,64
62,65
62,66
64,67
64,68
65,71
65,77
65,78
66,85
67,70
67,71
67,72
67,73
68,69
68,74
69,76
69,77
69,78
70,83
70,88
71,75
71,76
72,75
72,76
73,75
73,77
74,75
75,80
75,81
75,82
75,83
76,79
76,80
76,81
76,82
76,83
77,79
77,82
77,83
77,88
78,79
78,80
79,98
79,99
80,84
80,85
81,84
81,85
82,91
82,92
83,86
84,86
84,87
84,88
85,89
85,90
86,90
87,89
88,90
89,91
89,95
90,92
90,93
91,96
92,94
93,95
93,97
95,99
95,100
96,98
96,100
97,98

<end>
